For VASP. System= Fe
2.40
1.0000000000000000 0.0000000000000000 0.0000000000000000
0.0000000000000000 1.000000000000000 0.0000000000000000
0.000000000000000 0.0000000000000000 1.000000000000000
2
Direct
0.0000000000000000 0.0000000000000000 0.0000000000000000
0.5000000000000000 0.5000000000000000 0.5000000000000000
