For VASP. System= Fe
3.0000000000000000
1.0000000000000000 0.0000000000000000 0.0000000000000000
0.0000000000000000 1.0000000000000000 0.0000000000000000
0.0000000000000000 0.0000000000000000 1.0000000000000000
2
Direct
0.0000000000000000 0.0000000000000000 0.0000000000000000
0.5000000000000000 0.5000000000000000 0.5000000000000000
